80	1
0 29
0 57
0 77
0 3
0 91
0 52
0 83
0 79
0 45
0 10
0 13
0 70
0 94
0 64
0 15
0 46
0 71
0 36
0 60
0 58
0 73
0 73
0 84
0 8
0 69
0 80
0 6
0 45
0 31
0 81
0 48
0 15
0 74
0 41
0 40
0 37
0 35
0 31
0 65
0 56
0 30
0 88
0 21
0 99
0 50
0 56
0 67
0 6
0 83
0 79
0 66
0 49
0 78
0 33
0 91
0 86
0 8
0 28
0 74
0 27
0 22
0 53
0 8
0 26
0 86
0 43
0 40
0 49
0 7
0 18
0 23
0 33
0 26
0 73
0 76
0 37
0 72
0 90
0 2
0 73
